Route #1: 33 36 38 28 24 22 29 20 13 6 4 39 44 50
Route #2: 2 43 47 9 25 10 12 32 27 19 31 8 45 14
Route #3: 11 42 40 7 15 49 30 34 21 5 48 18 23
Route #4: 17 3 46 26 41 16 37 1 35
Cost 6593333.000000